(set-info :smt-lib-version 2.6)
(set-logic QF_S)
(set-info :source |
Generated by: Hongjian Jiang, Oliver Markgraf, Daniel Stan, Anthony W. Lin, Philipp Ruemmer
Generated on: 2025-04-11
Application: Using String Solvers to solve RMC problems encoded as CHC over Strings
Target solver: cvc5, OSTRICH, Z3, Z3alpha, Z3-noodler
Time limit: 60.0
Benchmarks are extracted by running HornStr https://arg-git.informatik.uni-kl.de/pub/string-chc-lib on all benchmarks
provided in the repository and gathering the string queries sent to the string solvers.
|)
(set-info :license "https://creativecommons.org/licenses/by/4.0/")
(set-info :category "industrial")
(declare-fun varout () String)
(assert (let ((a!1 (re.union (re.union (re.union (str.to_re "Z") (str.to_re "c"))
                               (str.to_re "d"))
                     (str.to_re "e"))))
(let ((a!2 (re.union (re.union (re.union a!1 (str.to_re "b")) (str.to_re "a"))
                     (str.to_re "f"))))
  (str.in_re varout (re.* a!2)))))
(declare-fun varin () String)
(assert (let ((a!1 (re.union (re.union (re.union (str.to_re "Z") (str.to_re "c"))
                               (str.to_re "d"))
                     (str.to_re "e"))))
(let ((a!2 (re.union (re.union (re.union a!1 (str.to_re "b")) (str.to_re "a"))
                     (str.to_re "f"))))
  (str.in_re varin (re.* a!2)))))
(declare-fun X () String)
(declare-fun isin () Bool)
(declare-fun isout () Bool)
(assert (let ((a!1 (re.++ (re.* (re.++ (str.to_re "b") (str.to_re "b")))
                  (str.to_re "b")))
      (a!5 (re.++ (re.* (re.++ (str.to_re "b") (str.to_re "b")))
                  (re.++ (str.to_re "b") (str.to_re "e"))))
      (a!9 (re.++ (re.* (re.++ (str.to_re "e") (str.to_re "e")))
                  (str.to_re "e"))))
(let ((a!2 (re.union (str.to_re "b")
                     (re.++ (re.++ (str.to_re "b") (str.to_re "b")) a!1)))
      (a!6 (re.union (re.++ (str.to_re "b") (str.to_re "e"))
                     (re.++ (re.++ (str.to_re "b") (str.to_re "b")) a!5)))
      (a!10 (re.union (str.to_re "e")
                      (re.++ (re.++ (str.to_re "e") (str.to_re "e")) a!9))))
(let ((a!3 (re.++ (re.* (re.++ (str.to_re "b") (str.to_re "b"))) a!2))
      (a!7 (re.++ (re.* (re.++ (str.to_re "b") (str.to_re "b"))) a!6))
      (a!11 (re.++ (re.* (re.++ (str.to_re "e") (str.to_re "e"))) a!10)))
(let ((a!4 (re.union (str.to_re "Z")
                     (re.++ (re.++ (str.to_re "Z") (str.to_re "b")) a!3)))
      (a!8 (re.union (re.++ (str.to_re "Z") (str.to_re "e"))
                     (re.++ (re.++ (str.to_re "Z") (str.to_re "b")) a!7))))
  (and (str.in_re X (re.union a!4 (re.++ a!8 a!11)))
       (not isin)
       (= X varout)
       isout))))))
(push 1)
(assert (str.in_re varout re.none))
(set-info :status unknown)
(check-sat)
(pop 1)
(push 1)
(assert (str.in_re varout re.none))
(set-info :status unknown)
(check-sat)
(pop 1)
(push 1)
(assert (let ((a!1 (re.union (re.union (re.union (str.to_re "c") (str.to_re "d"))
                               (str.to_re "e"))
                     (str.to_re "b")))
      (a!4 (re.union (re.union (re.union (str.to_re "Z") (str.to_re "c"))
                               (str.to_re "d"))
                     (str.to_re "e")))
      (a!8 (re.union (re.union (re.union (str.to_re "Z") (str.to_re "c"))
                               (str.to_re "e"))
                     (str.to_re "f")))
      (a!12 (re.union (re.union (re.union (str.to_re "d") (str.to_re "e"))
                                (str.to_re "b"))
                      (str.to_re "f")))
      (a!22 (re.union (re.union (re.union (str.to_re "Z") (str.to_re "c"))
                                (str.to_re "d"))
                      (str.to_re "f"))))
(let ((a!2 (re.* (re.union (re.union a!1 (str.to_re "a")) (str.to_re "f")))))
(let ((a!3 (re.++ (re.union (re.union a!1 (str.to_re "a")) (str.to_re "f"))
                  (re.++ a!2 (str.to_re "Z")))))
(let ((a!5 (re.++ (re.union (re.union a!4 (str.to_re "a")) (str.to_re "f"))
                  (re.++ a!2 (re.union (str.to_re "Z") a!3))))
      (a!9 (re.++ a!8 (re.++ a!2 (re.union (str.to_re "Z") a!3))))
      (a!13 (re.++ (re.union (re.union (str.to_re "Z") (str.to_re "c"))
                             (str.to_re "a"))
                   (re.++ a!2 (re.union (str.to_re "Z") a!3))))
      (a!23 (re.++ a!22 (re.++ a!2 (re.union (str.to_re "Z") a!3)))))
(let ((a!6 (re.union (str.to_re "b")
                     (re.++ a!5 (re.++ (re.* a!5) (str.to_re "b"))))))
(let ((a!7 (re.++ (re.++ a!2 (re.union (str.to_re "Z") a!3))
                  (re.++ (re.* a!5) a!6)))
      (a!10 (re.union (str.to_re "b") (re.++ a!9 (re.++ (re.* a!5) a!6)))))
(let ((a!11 (re.union (str.to_re "d")
                      (re.++ a!10 (re.++ (re.* a!10) (str.to_re "d")))))
      (a!17 (re.union (str.to_re "a")
                      (re.++ a!10 (re.++ (re.* a!10) (str.to_re "a"))))))
(let ((a!14 (re.++ (re.++ a!13 (re.++ (re.* a!5) a!6)) (re.++ (re.* a!10) a!11)))
      (a!18 (re.++ (re.++ a!13 (re.++ (re.* a!5) a!6)) (re.++ (re.* a!10) a!17)))
      (a!24 (re.++ (re.++ a!23 (re.++ (re.* a!5) a!6)) (re.++ (re.* a!10) a!17)))
      (a!26 (re.++ (re.++ a!23 (re.++ (re.* a!5) a!6)) (re.++ (re.* a!10) a!11))))
(let ((a!15 (re.union (str.to_re "")
                      (re.++ (re.union a!12 a!14) (re.* (re.union a!12 a!14)))))
      (a!19 (re.++ (re.union a!12 a!14)
                   (re.++ (re.* (re.union a!12 a!14)) a!18)))
      (a!25 (re.union (re.union (re.union (str.to_re "e") (str.to_re "b"))
                                (str.to_re "a"))
                      a!24)))
(let ((a!16 (re.++ (re.++ a!7 (re.++ (re.* a!10) a!11))
                   (re.++ (re.* (re.union a!12 a!14)) a!15)))
      (a!20 (re.++ (re.++ a!7 (re.++ (re.* a!10) a!11))
                   (re.++ (re.* (re.union a!12 a!14)) (re.union a!18 a!19))))
      (a!27 (re.++ a!26
                   (re.++ (re.* (re.union a!12 a!14)) (re.union a!18 a!19))))
      (a!28 (re.++ a!26 (re.++ (re.* (re.union a!12 a!14)) a!15))))
(let ((a!21 (re.union (re.++ a!7 (re.++ (re.* a!10) a!17)) a!20))
      (a!29 (re.++ (re.union a!25 a!27)
                   (re.++ (re.* (re.union a!25 a!27))
                          (re.union (str.to_re "") a!28)))))
(let ((a!30 (re.++ (re.* (re.union a!25 a!27))
                   (re.union (re.union (str.to_re "") a!28) a!29))))
  (str.in_re varout (re.union a!16 (re.++ a!21 a!30))))))))))))))))
(set-info :status unknown)
(check-sat)
(exit)
